F Comment Line: F Li Na, 4-1, 100 atoms,
   1.00000000000000     
    10.9007826022222147    0.0000000000000000    0.0000000000000000
     0.0000000000000000   10.9007826022222147    0.0000000000000000
     0.0000000000000000    0.0000000000000000   10.9007826022222147
   F    Li   Na
    50    40    10
Direct
  0.2928140964444644 -1.9054143148006604  0.8139655692869524
 -0.8531236387399944  0.9755545157535026  1.3084834212562175
 -0.1965934431539222  0.8433839709084364 -0.2271225881495669
  0.0650320827189706  1.2762305007164785  0.9115615044191063
 -0.8863745594923143  1.8600623533793161 -0.1937582041078560
 -0.0956569649940597  2.2216739723727441  0.6137740601381502
 -1.5625174466281802  2.0148694321477829 -0.6594384480537642
 -0.0941371917073240  1.3803597697205703  0.4773340855034620
  0.6846005008494302 -0.3292477163522338  0.0689327458491172
  0.9984487232561841  0.4667426167262210 -0.3077938304236663
  0.5249200905046161 -0.4303114753088131  0.4284799598724596
  1.2349333787325647  2.6072772320895581  0.3134929916830052
 -0.7397225061924320  0.5424685853232438 -1.1953850941060193
 -0.0852976020970146  0.0519966761375426  0.8958561351081564
  0.6504887057742167  0.0342970304148912 -0.3764748605646111
  1.5559912224602264  0.5760558781729552  0.6833255777225639
  0.0455087005394885  1.6872343600122985  0.6242885051453095
  1.4810494353392756 -0.4416341465565949 -0.0909520462996383
 -0.4828953788327637 -1.2011715543711019 -0.1865158346811937
  0.8308117513119785 -0.1355907191029596  0.0382485755019334
  0.1736689172971420  0.2579632354766893  0.6649104512177785
  2.3693924288151669 -0.6834746627241050 -1.0939343926199359
  1.3206372215358746  1.2473870181268785  2.3080567416636399
 -0.1235555167473137  2.2303801470657700  0.1592250905289490
  2.4320786211973742  0.4124476651222281  0.1297707395850123
  1.0303343708227639  1.2250608290514835  1.3769166137771254
 -0.3577200411421741 -0.6826318978268590 -0.0102717587412839
  1.0574766381245571 -0.0566492722772903  0.0383735029729469
  0.5113036327990442  0.6961156775865724  1.2133587741299965
  0.6225985754971921  0.9741394407919262  1.1495212205067815
 -0.2350681183080168  0.0610317936152108  1.3917903469135107
 -0.1975466470024512 -0.3609075121423801 -0.4809686143858105
  0.6012418501416317  0.0417308684859155 -1.1120894880489880
 -0.6540054498440887 -0.0213186197411015  0.5697078860323853
  1.0335253048711688 -0.2709980529021010  2.2075856947466850
  1.3299015781916492 -0.2430662349400793 -1.3226870236052699
  0.8216880528216094 -0.4995573719139859 -0.0632581548809656
  1.5359554955445915 -0.1787233899225174  0.5043976628856561
  0.6851507507144293  2.2931365302185496  1.3687587156810723
 -0.8065640458074346 -0.5471530768887712  0.0786515832287608
  0.4047987296571052  0.2944623141373106 -0.4502182721603532
  1.7735564442153728 -0.4298406385511385  0.2948737584351802
 -0.1881579246388416 -0.1918696037082658  0.2873211145995521
  0.7013726175752649 -0.6192809021994128  0.6099639187622323
  1.0276542454139697  1.6914263122341040 -0.0632706298493185
  1.9467723922027551  1.0183682257575903  0.2250458639239144
  0.2442790376887325  1.6701080733455376  1.0596490738169091
  0.1803354659967787 -0.8421420661935135 -1.9177403746736523
 -0.0151274280580969  0.9553398298317629  0.5670577130051552
  0.3459601883793831  0.8983805886420503  2.0285964364459743
  0.8418207768305331  0.6842451604079204  0.0070622480554384
  0.1936085011796352 -0.3865101748067126 -0.0810343813328904
  2.4826830653993306  0.9333416057400337  0.1912630013697809
 -1.4412315769457213  1.9939422436163956 -1.5369718347822712
  1.9951447011304502  1.0872887764924009 -0.9403211740123225
 -0.5930315596006975 -0.9964338074156899  0.8933123567679929
  0.2098193689431789  0.1304629550515855 -0.6540350582682104
 -0.3356097813322667  0.7391377450992465 -0.7753669409393595
 -0.0610446262405457  1.9005808764543692  0.9180357671658500
  0.0362027927677246  1.2848068301516780 -1.4625001220250304
  2.1378983406144090 -0.7004993236321588  1.0683329415798251
 -0.2761675047006206  0.0065563077900561 -0.9884683794537887
 -0.0835312928711752  0.6581093692056391  0.2724552391327431
  0.6769005464696443  2.5906156143126178  1.8796384534174020
 -0.8452158901732142  1.0007889977500009  1.1374612676989635
 -0.5656855078232237 -0.1610841195647168 -0.3751010464142239
 -0.0614345478467314  1.5129022044836147 -1.4531084536626961
 -0.8508759328005777 -0.4007416035255558  2.1753502199792951
 -0.2967143903154075 -0.5051161596797499 -0.5478005151655415
  1.4255823883392060 -0.3645775057992769 -1.2140095463655438
 -0.5133582763681093  1.4190685368537925  0.9662384860498886
 -1.1607624662633815  1.3921827961177631  1.6866888866493228
 -0.2269921906183605  0.2332726593431012  1.5067047961798603
 -0.3138052631817976  0.9859637283211252  0.7695030006081061
  0.3081404411553545  1.1920407403349773  2.6153116183271305
  0.8267231798720318 -0.9662817349550178  1.5460887454810652
 -0.0134091874440739  0.8383376800641400  0.7236626546899730
  0.8945654774194393  0.2702176114820927 -0.6941749333780045
  0.2154620131153145 -1.6640305056974043 -0.1787651563564193
  0.3101654697381418 -0.6611357684865563  1.0650020249829322
  0.7909019881003505  0.9736972705341700  1.2422100946489805
  0.5456869006454423 -0.5477861901745434  1.6103427364826151
  3.0180756989065900  2.0532759196101882 -1.6262444299042618
 -0.0326138568436340  0.8531694277090678  0.1390363922175768
  0.1754183208218262  0.8086715516518356  0.9683407012967139
  2.2716213136553294 -0.0868659734218036  0.7162956877068192
 -0.4841901721771305 -1.2911082974596337  0.3690604285498140
  0.0099829594515615  1.4651077366774299  2.8795100981414103
  0.1843689087103479  1.6169436077881312  1.6813394705483282
 -1.6441130481879087  2.5937656618575007  0.1848695187286935
  0.0930258754078294  0.1188807281073578  2.8070430985870978
  0.5042602516962829  2.7531114273579536  1.9983846705090207
  1.6496121170971836  0.7512805523512782 -0.3513674572832625
 -0.5823772131489094 -0.6173913204336043 -0.6706697581775396
  0.1909105190274098 -0.1933412680277050  1.3850824804671167
  1.8504235201735519  0.2941307533409845 -0.0097982364792975
  0.6527234607570351  2.4795416887727408  1.1370865348563413
  1.5610160206061772 -2.8390597297633220  3.2246289751641379
  0.5002973463256970  2.1709570624174601  0.7547559526268046
  0.9290856981127816  0.7772542399584850  0.5099130658094413
 